39 11
26 30
23 158
52 115
54 89
6 137
59 32
87 11
12 96
9 113
22 124
12 190
24 98
7 110
27 86
4 160
24 156
21 155
46 18
13 109
36 82
21 199
79 75
12 117
26 117
37 113
55 20
43 16
9 74
20 44
40 41
8 193
20 55
43 111
17 196
18 163
23 136
73 46
91 35
20 199
13 88
48 55
23 7
21 190
17 76
17 94
46 119
8 108
16 35
31 53
19 42
6 126
4 142
47 27
19 144
68 4
10 183
26 61
4 74
13 66
16 107
70 49
9 153
31 20
28 100
26 74
79 37
47 16
4 103
14 174
28 10
59 97
73 41
17 108
17 196
2 67
51 18
42 6
50 115
16 132
45 30
14 46
35 89
7 175
9 101
6 55
60 92
63 62
13 26
63 38
13 145
11 72
61 55
10 41
49 35
20 185
8 31
79 1
42 29
42 39
